# Solution for model r5_t18_m0_1
# Finished Task: 18 / 18
# Makespan: 591.0, Total Distance: 1014.0, Total Time: 0.1090
# R O S F
0 0 13 0.0 0.0
1 1 6 0.0 0.0
2 2 7 0.0 0.0
3 3 5 0.0 0.0
4 4 11 0.0 0.0
5 3 8 27.0 61.0
6 1 14 349.0 376.0
7 2 10 231.0 260.0
8 3 22 91.0 116.0
9 1 -1 479.0 504.0
10 2 15 414.0 452.0
11 4 19 138.0 167.0
12 4 -1 435.0 456.0
13 0 16 364.0 384.0
14 1 9 430.0 463.0
15 2 -1 471.0 492.0
16 0 20 474.0 499.0
17 3 18 294.0 320.0
18 3 -1 418.0 444.0
19 4 21 314.0 352.0
20 0 -1 552.0 591.0
21 4 12 366.0 392.0
22 3 17 228.0 265.0
